data;


param d:= 100;
param r:=5;
param p:=0.820000;
param M:=1000;
param U:=
         1         1       -8.766198e-02
         2         1        3.543840e-01
         3         1       -7.997149e-01
         4         1       -5.722340e-01
         5         1       -8.452548e-01
         6         1       -8.913168e-01
         7         1        6.765309e-01
         8         1        1.333846e+00
         9         1        1.071329e+00
        10         1        2.753235e-01
        11         1       -6.307899e-01
        12         1        1.077947e+00
        13         1       -1.191325e+00
        14         1       -2.987350e+00
        15         1        8.900199e-01
        16         1        9.389412e-01
        17         1       -4.538917e-01
        18         1       -7.809395e-01
        19         1       -2.220999e+00
        20         1       -2.078443e-01
        21         1        1.065440e+00
        22         1       -1.217261e+00
        23         1        7.640046e-01
        24         1       -7.965832e-01
        25         1        3.788860e-02
        26         1        7.210280e-01
        27         1        1.233594e+00
        28         1       -2.135040e+00
        29         1       -6.195618e-02
        30         1       -1.217479e+00
        31         1        5.961427e-01
        32         1        1.219822e+00
        33         1       -2.048779e+00
        34         1       -1.234152e+00
        35         1        5.819200e-01
        36         1       -2.574976e-01
        37         1        1.371259e+00
        38         1        6.387100e-01
        39         1        9.008326e-01
        40         1       -9.880034e-01
        41         1        2.346272e-01
        42         1        2.369799e+00
        43         1        8.628124e-01
        44         1       -2.377971e+00
        45         1       -2.891512e-01
        46         1       -4.739562e-01
        47         1       -1.254827e-01
        48         1        1.165288e-02
        49         1        2.477930e-01
        50         1        3.341913e-01
        51         1       -1.401970e+00
        52         1        2.321613e-01
        53         1       -6.870585e-03
        54         1       -1.353967e+00
        55         1        3.865258e-01
        56         1        1.778882e-01
        57         1       -6.379552e-01
        58         1        6.829838e-01
        59         1       -1.608976e-01
        60         1       -1.404928e+00
        61         1        3.962426e-01
        62         1       -3.021949e-03
        63         1        3.793530e-01
        64         1       -6.938668e-01
        65         1       -3.011877e-01
        66         1       -1.829932e+00
        67         1        1.398602e+00
        68         1        1.632821e+00
        69         1        1.319021e+00
        70         1        1.142511e+00
        71         1        5.515819e-01
        72         1        9.162455e-01
        73         1        1.733202e+00
        74         1        7.084223e-01
        75         1        1.206319e+00
        76         1        6.852009e-01
        77         1        1.073178e+00
        78         1       -6.904664e-01
        79         1       -7.152225e-01
        80         1       -5.143019e-01
        81         1       -1.287159e-02
        82         1        9.085857e-02
        83         1        1.323171e+00
        84         1       -9.022348e-01
        85         1        2.213510e+00
        86         1        7.024623e-01
        87         1       -1.942005e-01
        88         1        1.059355e+00
        89         1        2.192610e+00
        90         1        2.597906e+00
        91         1        1.771064e+00
        92         1        1.455003e+00
        93         1       -1.302021e+00
        94         1       -5.915798e-01
        95         1        2.271209e+00
        96         1       -1.311519e+00
        97         1       -6.204072e-01
        98         1        2.025716e+00
        99         1        7.182114e-01
       100         1       -5.417400e-01
         1         2        9.603549e-01
         2         2       -9.400353e-01
         3         2       -4.617897e-01
         4         2        4.479064e-01
         5         2       -9.117955e-01
         6         2        1.249553e+00
         7         2        1.689629e+00
         8         2        8.622567e-01
         9         2       -1.655164e+00
        10         2        7.726220e-01
        11         2        2.052976e+00
        12         2        3.563683e-01
        13         2        1.319062e-01
        14         2       -8.066031e-01
        15         2        7.012082e-01
        16         2        5.071456e-01
        17         2       -1.274516e+00
        18         2       -3.238019e-01
        19         2        5.262519e-01
        20         2       -1.123617e+00
        21         2        1.464236e+00
        22         2       -4.622140e-01
        23         2        1.467711e+00
        24         2        1.535976e+00
        25         2       -1.316877e+00
        26         2        2.987088e-01
        27         2        2.845035e-01
        28         2        3.370039e-01
        29         2       -1.948052e+00
        30         2       -4.331731e-01
        31         2       -1.983969e+00
        32         2       -2.082901e+00
        33         2        5.898129e-01
        34         2        2.400563e-01
        35         2        3.195100e-01
        36         2        8.322228e-02
        37         2        1.392038e-01
        38         2        5.806994e-01
        39         2        2.958151e-01
        40         2       -5.037529e-01
        41         2        3.240390e-02
        42         2       -1.998745e-03
        43         2       -2.382245e+00
        44         2       -1.140349e+00
        45         2        4.867893e-01
        46         2        3.066696e-01
        47         2        2.550977e+00
        48         2        1.051306e+00
        49         2       -5.482758e-01
        50         2        4.910961e-01
        51         2       -1.350204e+00
        52         2        4.168057e-01
        53         2       -2.772338e-01
        54         2       -1.088182e+00
        55         2        1.234037e+00
        56         2       -1.449633e+00
        57         2       -7.547524e-01
        58         2        9.555033e-01
        59         2       -8.461646e-01
        60         2       -2.837585e-01
        61         2       -2.736600e-01
        62         2       -2.223054e-01
        63         2        3.636188e-01
        64         2        2.275108e-01
        65         2       -9.389243e-01
        66         2       -1.295458e+00
        67         2       -1.545215e+00
        68         2       -1.773112e+00
        69         2       -4.796593e-01
        70         2       -6.182126e-01
        71         2       -7.523475e-01
        72         2       -1.349766e+00
        73         2       -7.275997e-01
        74         2       -7.287295e-01
        75         2       -7.901389e-01
        76         2       -4.888554e-01
        77         2        1.309840e+00
        78         2        6.054481e-01
        79         2        3.559113e-01
        80         2        7.164540e-01
        81         2       -4.460337e-01
        82         2       -9.839146e-01
        83         2        3.883082e-01
        84         2       -5.672406e-02
        85         2        4.207710e-01
        86         2        3.940198e-01
        87         2       -2.973302e-02
        88         2       -8.644372e-01
        89         2       -9.855352e-01
        90         2        7.807102e-01
        91         2       -9.157800e-01
        92         2        1.062105e+00
        93         2       -1.377891e+00
        94         2       -9.875613e-01
        95         2       -4.438392e-01
        96         2        2.401748e-01
        97         2        5.257557e-01
        98         2       -9.540303e-01
        99         2        1.043088e+00
       100         2       -3.645892e-01
         1         3        2.017451e-01
         2         3       -7.161178e-01
         3         3       -2.195879e-01
         4         3       -4.976912e-01
         5         3       -2.249418e+00
         6         3        1.300247e+00
         7         3        5.145346e-01
         8         3       -8.812857e-01
         9         3       -8.626647e-01
        10         3       -3.934965e-01
        11         3       -1.571669e-01
        12         3       -1.240461e+00
        13         3       -1.142242e-01
        14         3       -7.188800e-01
        15         3        1.820087e+00
        16         3        8.169576e-02
        17         3       -1.420805e+00
        18         3       -1.080811e+00
        19         3       -6.512354e-01
        20         3        2.055747e-01
        21         3        1.261260e+00
        22         3        2.322700e+00
        23         3       -3.789329e+00
        24         3       -6.954684e-01
        25         3        6.334793e-01
        26         3       -6.087020e-01
        27         3        1.397027e+00
        28         3       -8.052067e-01
        29         3       -2.858804e-01
        30         3        1.477550e+00
        31         3       -1.876207e+00
        32         3       -1.467817e+00
        33         3       -1.901130e-01
        34         3        2.004375e-01
        35         3        1.159186e+00
        36         3        1.019762e-01
        37         3        3.192785e-01
        38         3       -2.636333e-01
        39         3        7.898814e-01
        40         3        2.484528e-01
        41         3        6.886949e-01
        42         3       -1.152187e+00
        43         3       -2.251197e-01
        44         3       -6.908807e-02
        45         3        3.447859e-02
        46         3        1.688566e+00
        47         3       -3.690965e-01
        48         3       -1.401356e+00
        49         3       -2.114847e+00
        50         3        1.502723e+00
        51         3       -5.550419e-01
        52         3        2.248053e-01
        53         3        6.936541e-02
        54         3       -3.201054e-01
        55         3       -1.281901e+00
        56         3       -3.191585e-01
        57         3        6.806363e-01
        58         3        1.964766e+00
        59         3        7.249216e-01
        60         3        1.250798e+00
        61         3       -1.694842e+00
        62         3        4.637252e-01
        63         3       -8.725623e-01
        64         3        4.433668e-02
        65         3        8.836355e-02
        66         3        6.410814e-01
        67         3       -8.334577e-01
        68         3       -7.640958e-01
        69         3        1.216833e+00
        70         3       -1.410147e-01
        71         3       -6.620135e-01
        72         3       -1.380810e+00
        73         3       -6.005405e-01
        74         3        1.062257e+00
        75         3        5.885716e-01
        76         3        4.466521e-01
        77         3        6.865059e-01
        78         3       -9.492756e-01
        79         3        9.498614e-01
        80         3       -6.988314e-01
        81         3        1.055561e+00
        82         3       -2.239877e+00
        83         3       -9.415691e-01
        84         3       -6.009705e-01
        85         3        4.351723e-01
        86         3        2.523592e-01
        87         3       -3.610969e-01
        88         3       -1.688513e+00
        89         3       -3.229329e-01
        90         3       -1.312268e+00
        91         3        1.378291e+00
        92         3        5.083288e-01
        93         3       -9.389876e-01
        94         3       -6.544540e-01
        95         3       -6.645712e-01
        96         3       -2.336197e+00
        97         3       -1.472028e+00
        98         3        5.912759e-01
        99         3        3.574482e-01
       100         3       -1.547846e+00
         1         4       -2.705145e-01
         2         4        9.361462e-01
         3         4       -1.292104e+00
         4         4        4.748764e-01
         5         4       -6.928491e-01
         6         4        6.688227e-01
         7         4       -2.853775e-01
         8         4        6.307433e-01
         9         4       -1.607738e+00
        10         4       -6.285268e-01
        11         4       -6.347126e-01
        12         4       -8.571122e-01
        13         4       -6.840533e-01
        14         4       -1.377734e+00
        15         4        1.242964e+00
        16         4       -2.656561e-01
        17         4       -5.812482e-01
        18         4       -2.416015e+00
        19         4        1.656720e+00
        20         4       -9.825398e-01
        21         4        4.140257e-01
        22         4        1.929464e+00
        23         4        2.634116e-01
        24         4        3.590676e-01
        25         4        1.309499e+00
        26         4       -1.356325e+00
        27         4        1.625150e+00
        28         4        6.655367e-01
        29         4        7.266797e-01
        30         4        9.194560e-01
        31         4       -7.456331e-02
        32         4        1.019605e+00
        33         4       -4.492844e-01
        34         4        8.801254e-01
        35         4        2.897532e-01
        36         4       -1.931126e+00
        37         4       -6.064825e-01
        38         4       -8.213076e-01
        39         4        1.527056e+00
        40         4        1.340055e+00
        41         4       -1.672075e-01
        42         4        7.249584e-01
        43         4        7.630670e-01
        44         4       -7.398725e-01
        45         4        1.472417e-01
        46         4        9.077078e-01
        47         4        1.185700e+00
        48         4       -2.968195e-01
        49         4        2.392881e-01
        50         4       -9.474884e-01
        51         4       -1.138584e+00
        52         4        4.326566e-01
        53         4        1.152787e+00
        54         4       -4.721909e-01
        55         4        5.378352e-02
        56         4        9.175693e-01
        57         4       -3.155401e-01
        58         4       -9.190342e-01
        59         4        5.299122e-01
        60         4       -1.295133e+00
        61         4       -3.533688e-01
        62         4       -8.855731e-02
        63         4       -1.058638e+00
        64         4        1.634842e+00
        65         4       -2.567850e-01
        66         4        8.755096e-01
        67         4        1.180187e+00
        68         4        4.437439e-01
        69         4        1.316688e+00
        70         4        1.857182e-02
        71         4        7.851648e-01
        72         4       -4.512705e-01
        73         4        7.443133e-01
        74         4        9.201701e-01
        75         4       -3.202086e-01
        76         4        8.730961e-01
        77         4        2.666146e-02
        78         4       -2.843290e-01
        79         4       -4.351828e-01
        80         4        7.834726e-01
        81         4        4.058789e-01
        82         4        1.712908e-01
        83         4        1.144526e-02
        84         4       -6.673551e-02
        85         4       -5.961841e-01
        86         4        1.903413e-01
        87         4       -1.848937e-02
        88         4        6.574395e-01
        89         4        1.110861e+00
        90         4       -1.636155e-01
        91         4        1.556906e+00
        92         4       -1.922675e+00
        93         4       -5.674262e-01
        94         4        4.346066e-01
        95         4       -1.347245e+00
        96         4       -4.842011e-01
        97         4       -6.406230e-02
        98         4        8.088542e-01
        99         4        7.573967e-01
       100         4        4.680898e-01
         1         5        7.549734e-01
         2         5       -1.013462e+00
         3         5        7.278725e-01
         4         5        1.976923e-01
         5         5       -3.861402e-02
         6         5        3.986090e-01
         7         5       -1.301073e-02
         8         5       -1.516947e+00
         9         5       -5.095589e-01
        10         5        8.863846e-01
        11         5       -1.022450e+00
        12         5       -2.615234e-01
        13         5        5.298761e-01
        14         5        1.231517e-02
        15         5       -2.265869e-01
        16         5       -2.067699e+00
        17         5       -7.391776e-04
        18         5        1.790486e-01
        19         5        3.880408e-01
        20         5       -1.888049e-01
        21         5        2.162819e+00
        22         5       -1.269717e+00
        23         5       -3.792823e-01
        24         5        5.309572e-01
        25         5       -8.648337e-01
        26         5        6.728066e-01
        27         5        8.668060e-02
        28         5        1.598673e-01
        29         5        1.244462e+00
        30         5       -1.570955e-01
        31         5        3.187790e-01
        32         5       -6.861043e-01
        33         5       -5.145218e-01
        34         5       -2.351400e+00
        35         5        8.491674e-01
        36         5       -3.645943e-01
        37         5       -1.416150e+00
        38         5       -8.378099e-01
        39         5        8.869580e-01
        40         5        8.041222e-02
        41         5        2.901666e+00
        42         5       -8.984393e-02
        43         5       -8.310077e-01
        44         5       -9.182243e-01
        45         5       -9.014020e-01
        46         5       -9.178036e-01
        47         5       -8.323069e-01
        48         5       -1.700273e-01
        49         5        6.719888e-01
        50         5        1.566765e+00
        51         5       -8.856048e-01
        52         5        1.107119e+00
        53         5       -1.355012e+00
        54         5       -1.287925e+00
        55         5        1.572670e-01
        56         5        7.800693e-03
        57         5        3.502503e-01
        58         5        9.111805e-01
        59         5        9.461170e-02
        60         5       -1.684265e-01
        61         5       -1.288825e+00
        62         5       -7.630424e-01
        63         5        4.560563e-01
        64         5       -6.813061e-01
        65         5       -2.674327e-02
        66         5        1.034314e+00
        67         5       -2.061065e+00
        68         5        3.813827e-01
        69         5       -8.366622e-02
        70         5       -2.035982e-01
        71         5       -9.163157e-01
        72         5        1.921780e+00
        73         5        5.862786e-01
        74         5       -8.850801e-01
        75         5       -6.665452e-01
        76         5        4.607589e-01
        77         5       -8.494555e-01
        78         5        6.993660e-01
        79         5        1.056095e+00
        80         5       -2.156297e-01
        81         5        5.359946e-01
        82         5       -4.857938e-01
        83         5       -6.354813e-02
        84         5       -1.386837e+00
        85         5       -1.325535e+00
        86         5        2.349769e-01
        87         5        4.482082e-02
        88         5       -8.782644e-01
        89         5       -5.754231e-01
        90         5       -4.280410e-01
        91         5       -6.504214e-01
        92         5        1.380166e+00
        93         5       -1.549796e+00
        94         5        1.657064e+00
        95         5       -1.274778e-01
        96         5       -5.690561e-01
        97         5       -3.231388e-01
        98         5       -2.203389e+00
        99         5        8.453679e-01
       100         5       -5.977142e-01
;

param theta:=
    1        5.557458e-01
    2        3.012963e-01
    3        1.398440e-01
    4        2.503037e-01
    5        6.882649e-02
;
param X_true:=
    1        2.527441e-01
    2       -2.304425e-02
    3       -8.870548e-01
    4       -1.194767e-01
    5       -1.233800e+00
    6        2.571216e-01
    7        8.847055e-01
    8        9.300944e-01
    9       -4.628069e-01
   10        2.339364e-01
   11        1.843265e-02
   12        3.005882e-01
   13       -7.746701e-01
   14       -2.346956e+00
   15        1.255639e+00
   16        4.768850e-01
   17       -9.798303e-01
   18       -1.275293e+00
   19       -7.257310e-01
   20       -6.842180e-01
   21        1.462270e+00
   22       -9.614693e-02
   23        3.724593e-01
   24        4.941011e-02
   25       -1.892525e-02
   26        1.116566e-01
   27        1.379023e+00
   28       -1.020312e+00
   29       -3.934997e-01
   30       -3.833944e-01
   31       -5.253983e-01
   32        5.487863e-02
   33       -1.135307e+00
   34       -5.254955e-01
   35        7.135235e-01
   36       -6.126512e-01
   37        5.978151e-01
   38        2.298411e-01
   39        1.142587e+00
   40       -3.247797e-01
   41        3.957253e-01
   42        1.331180e+00
   43       -1.378476e-01
   44       -1.923121e+00
   45       -3.410673e-02
   46        2.277344e-01
   47        8.864907e-01
   48        4.141636e-02
   49       -2.169755e-01
   50        4.131414e-01
   51       -1.607074e+00
   52        4.703401e-01
   53        1.185045e-01
   54       -1.331528e+00
   55        4.315792e-01
   56       -1.514542e-01
   57       -5.417290e-01
   58        7.753057e-01
   59       -1.048722e-01
   60       -1.027744e+00
   61       -2.772037e-01
   62       -7.804827e-02
   63       -3.604744e-02
   64        5.042072e-02
   65       -5.033204e-01
   66       -1.028036e+00
   67        3.493690e-01
   68        4.037663e-01
   69        1.083096e+00
   70        4.222799e-01
   71        1.194037e-01
   72       -7.108879e-02
   73        8.854459e-01
   74        4.907041e-01
   75        3.868491e-01
   76        5.453351e-01
   77        1.035830e+00
   78       -3.568948e-01
   79       -1.940386e-01
   80        1.179397e-02
   81        1.427890e-01
   82       -5.494472e-01
   83        7.195498e-01
   84       -7.150786e-01
   85        1.176955e+00
   86        6.081985e-01
   87       -1.700635e-01
   88        1.960062e-01
   89        1.114078e+00
   90        1.426197e+00
   91        1.245931e+00
   92        8.138331e-01
   93       -1.518463e+00
   94       -4.946462e-01
   95        6.889991e-01
   96       -1.143519e+00
   97       -4.276075e-01
   98        9.713384e-01
   99        1.012005e+00
  100       -5.512939e-01
;
param X:=
    1        2.527441e-01
    2       -2.304425e-02
    3        1.437167e-01
    4       -1.194767e-01
    5       -5.637092e-01
    6        1.238286e-01
    7       -5.322693e-02
    8        1.903176e-01
    9       -2.260022e+00
   10        2.352259e-01
   11        1.843265e-02
   12        1.378462e+00
   13       -5.646261e-01
   14       -2.656417e-02
   15        1.650648e+00
   16        1.875063e-03
   17        7.875811e-01
   18        1.106649e-01
   19        3.577678e-01
   20       -8.156648e-01
   21       -2.394217e-01
   22        2.021077e-02
   23        1.192195e+00
   24       -4.265457e-01
   25        2.953344e-02
   26       -1.796330e+00
   27       -1.510813e-01
   28       -7.383956e-01
   29       -8.046099e-01
   30        7.980221e-01
   31       -2.820471e-01
   32       -1.013347e+00
   33        1.198234e+00
   34       -5.254955e-01
   35        7.135235e-01
   36       -6.126512e-01
   37        5.978151e-01
   38       -8.477537e-01
   39       -1.759322e+00
   40        3.986436e-01
   41        1.075589e+00
   42        1.331180e+00
   43       -1.378476e-01
   44       -8.377435e-01
   45       -3.185937e+00
   46       -9.126087e-01
   47       -1.139653e+00
   48       -2.137958e-01
   49       -1.217124e+00
   50        4.131414e-01
   51       -1.137019e+00
   52        6.437814e-01
   53        8.768685e-01
   54        8.920547e-01
   55        2.734055e-01
   56        5.291567e-02
   57        6.970518e-01
   58       -9.486300e-01
   59        7.373766e-02
   60       -4.687952e-02
   61       -4.945296e-01
   62       -1.363913e-01
   63        1.723008e+00
   64       -1.072654e+00
   65       -5.033204e-01
   66       -1.028036e+00
   67        2.109342e-01
   68        1.188894e+00
   69        7.908638e-01
   70        4.222799e-01
   71        1.194037e-01
   72        1.144988e+00
   73       -1.992252e+00
   74        8.590613e-01
   75        1.488582e-01
   76       -1.194381e+00
   77        1.249663e+00
   78       -1.074565e+00
   79       -4.608770e-01
   80        1.456745e+00
   81       -5.099566e-01
   82       -1.693268e-01
   83        9.256921e-01
   84       -1.998931e-02
   85        6.927989e-01
   86       -1.243919e-01
   87       -3.407592e-01
   88       -7.331808e-02
   89        2.668332e-01
   90        1.426197e+00
   91       -1.046772e+00
   92       -6.167303e-01
   93       -6.982168e-01
   94       -4.946462e-01
   95        1.503400e+00
   96       -5.750091e-01
   97       -9.922176e-01
   98       -6.721663e-01
   99       -1.817718e+00
  100       -5.512939e-01
;
param outliervec:=
    1    0
    2    0
    3    1
    4    0
    5    1
    6    1
    7    1
    8    1
    9    1
   10    1
   11    0
   12    1
   13    1
   14    1
   15    1
   16    1
   17    1
   18    1
   19    1
   20    1
   21    1
   22    1
   23    1
   24    1
   25    1
   26    1
   27    1
   28    1
   29    1
   30    1
   31    1
   32    1
   33    1
   34    0
   35    0
   36    0
   37    0
   38    1
   39    1
   40    1
   41    1
   42    0
   43    0
   44    1
   45    1
   46    1
   47    1
   48    1
   49    1
   50    0
   51    1
   52    1
   53    1
   54    1
   55    1
   56    1
   57    1
   58    1
   59    1
   60    1
   61    1
   62    1
   63    1
   64    1
   65    0
   66    0
   67    1
   68    1
   69    1
   70    0
   71    0
   72    1
   73    1
   74    1
   75    1
   76    1
   77    1
   78    1
   79    1
   80    1
   81    1
   82    1
   83    1
   84    1
   85    1
   86    1
   87    1
   88    1
   89    1
   90    0
   91    1
   92    1
   93    1
   94    0
   95    1
   96    1
   97    1
   98    1
   99    1
  100    0
;